Problem:    
Rows:       256
Columns:    89 (72 integer, 72 binary)
Non-zeros:  800
Status:     INTEGER OPTIMAL
Objective:  value = 54.164881 (MINimum)

   No.   Row name        Activity     Lower bound   Upper bound
------ ------------    ------------- ------------- -------------
     1 r.5                   1054.16             0               
     2 r.6                  -983.652       -993.02               
     3 r.7                   54.1649             0               
     4 r.8                   24.5659      -986.046               
     5 r.9                   1054.16             0               
     6 r.10                 -975.434      -991.782               
     7 r.11                  54.1649             0               
     8 r.12                  32.5492      -977.584               
     9 r.13                  54.1649             0               
    10 r.14                  32.5492       -989.62               
    11 r.15                  1054.16             0               
    12 r.16                 -967.451      -982.752               
    13 r.17                  1054.16             0               
    14 r.18                 -990.632      -994.583               
    15 r.19                  54.1649             0               
    16 r.20                 -984.985      -987.081               
    17 r.21                  54.1649             0               
    18 r.22                 -989.899      -991.995               
    19 r.23                  1054.16             0               
    20 r.24                 -984.699      -986.795               
    21 r.25                  1054.16             0               
    22 r.26                 -997.904      -997.904               
    23 r.27                  54.1649             0               
    24 r.28                   2.0964      -997.479               
    25 r.29                  1054.16             0               
    26 r.30                 -945.835      -970.401               
    27 r.31                  54.1649             0               
    28 r.32                  54.1649      -913.906               
    29 r.33                  54.1649             0               
    30 r.34                  54.1649      -982.196               
    31 r.35                  1054.16             0               
    32 r.36                 -945.835      -978.384               
    33 r.37                        1             1             = 
    34 r.38                        1             1             = 
    35 r.39                        1             1             = 
    36 r.40                        1             1             = 
    37 r.41                        1             1             = 
    38 r.42                        1             1             = 
    39 r.43                        1             1             = 
    40 r.44                        1             1             = 
    41 r.45                        2             2               
    42 r.46                       -2         -1001               
    43 r.47                 -991.782      -991.782               
    44 r.48                     1000             2               
    45 r.49                    -1000         -1001               
    46 r.50                  2007.98      -977.584               
    47 r.51                     1001             2               
    48 r.52                    -1001         -1001               
    49 r.53                   2016.2       -989.62               
    50 r.54                     1001             2               
    51 r.55                    -1001         -1001               
    52 r.56                  2007.98      -982.752               
    53 r.57                        2             2               
    54 r.58                       -2         -1001               
    55 r.59                 -6.97977      -994.583               
    56 r.60                     1000             2               
    57 r.61                    -1000         -1001               
    58 r.62                   990.45      -987.081               
    59 r.63                     1001             2               
    60 r.64                    -1001         -1001               
    61 r.65                  993.754      -991.995               
    62 r.66                     1001             2               
    63 r.67                    -1001         -1001               
    64 r.68                  1990.74      -986.795               
    65 r.69                 -985.749       -993.02               
    66 r.70                  22.4695      -986.046               
    67 r.71                 -985.749       -993.02               
    68 r.72                  22.4695      -986.046               
    69 r.73                 -962.183      -970.401               
    70 r.74                  37.8173      -913.906               
    71 r.75                 -970.401      -970.401               
    72 r.76                   29.599      -913.906               
    73 r.77                     1001             2               
    74 r.78                    -1001         -1001               
    75 r.79                  2037.82      -982.196               
    76 r.80                     1001             2               
    77 r.81                    -1001         -1001               
    78 r.82                   2029.6      -978.384               
    79 r.83                        2             2               
    80 r.84                       -2         -1001               
    81 r.85                  991.782       6.97977               
    82 r.86                     1000             2               
    83 r.87                    -1000         -1001               
    84 r.88                  1992.02       13.9539               
    85 r.89                     1001             2               
    86 r.90                    -1001         -1001               
    87 r.91                  2007.98       -989.62               
    88 r.92                     1001             2               
    89 r.93                    -1001         -1001               
    90 r.94                     2000      -982.752               
    91 r.95                        2             2               
    92 r.96                       -2         -1001               
    93 r.97                 -15.1981      -994.583               
    94 r.98                     1000             2               
    95 r.99                    -1000         -1001               
    96 r.100                 982.466      -987.081               
    97 r.101                    1001             2               
    98 r.102                   -1001         -1001               
    99 r.103                 985.535      -991.995               
   100 r.104                    1001             2               
   101 r.105                   -1001         -1001               
   102 r.106                 1982.75      -986.795               
   103 r.107                 -977.53      -991.782               
   104 r.108                 30.4528      -977.584               
   105 r.109                 -977.53      -991.782               
   106 r.110                 30.4528      -977.584               
   107 r.111                       2             2               
   108 r.112                      -2         -1001               
   109 r.113                -970.401      -970.401               
   110 r.114                    1000             2               
   111 r.115                   -1000         -1001               
   112 r.116                 2021.62      -913.906               
   113 r.117                  29.599      -982.196               
   114 r.118                -970.401      -978.384               
   115 r.119                 21.6156      -982.196               
   116 r.120                -978.384      -978.384               
   117 r.121                    1001             2               
   118 r.122                   -1001         -1001               
   119 r.123                  1983.8       6.97977               
   120 r.124                    1001             2               
   121 r.125                   -1001         -1001               
   122 r.126                 1992.02       13.9539               
   123 r.127                    1001             2               
   124 r.128                   -1001         -1001               
   125 r.129                 1992.02       8.21833               
   126 r.130                    1001             2               
   127 r.131                   -1001         -1001               
   128 r.132                    2000       22.4156               
   129 r.133                 23.1814       -989.62               
   130 r.134                -976.819      -982.752               
   131 r.135                 1017.53       -989.62               
   132 r.136                 17.5337      -982.752               
   133 r.137                    1000             2               
   134 r.138                   -1000         -1001               
   135 r.139                 977.552      -991.995               
   136 r.140                       2             2               
   137 r.141                      -2         -1001               
   138 r.142                -17.2477      -986.795               
   139 r.143                 30.4528       -989.62               
   140 r.144                -969.547      -982.752               
   141 r.145                 30.4528       -989.62               
   142 r.146                -969.547      -982.752               
   143 r.147                    1001             2               
   144 r.148                   -1001         -1001               
   145 r.149                 2021.62      -970.401               
   146 r.150                    1001             2               
   147 r.151                   -1001         -1001               
   148 r.152                 2021.62      -913.906               
   149 r.153                 21.6156      -982.196               
   150 r.154                -978.384      -978.384               
   151 r.155                 21.6156      -982.196               
   152 r.156                -978.384      -978.384               
   153 r.157                       2             2               
   154 r.158                      -2         -1001               
   155 r.159                 6.97977       6.97977               
   156 r.160                    1000             2               
   157 r.161                   -1000         -1001               
   158 r.162                 3009.55       13.9539               
   159 r.163                       2             2               
   160 r.164                      -2         -1001               
   161 r.165                 15.1981       8.21833               
   162 r.166                    1000             2               
   163 r.167                   -1000         -1001               
   164 r.168                 3017.53       22.4156               
   165 r.169                    1001             2               
   166 r.170                   -1001         -1001               
   167 r.171                 1000.73      -991.995               
   168 r.172                    1001             2               
   169 r.173                   -1001         -1001               
   170 r.174                 3000.29      -986.795               
   171 r.175                -992.729      -994.583               
   172 r.176                -987.081      -987.081               
   173 r.177                -992.729      -994.583               
   174 r.178                -987.081      -987.081               
   175 r.179                       2             2               
   176 r.180                      -2         -1001               
   177 r.181                -955.203      -970.401               
   178 r.182                    1000             2               
   179 r.183                   -1000         -1001               
   180 r.184                 3039.15      -913.906               
   181 r.185                 44.7971      -982.196               
   182 r.186                -955.203      -978.384               
   183 r.187                 1039.15      -982.196               
   184 r.188                 39.1494      -978.384               
   185 r.189                    1001             2               
   186 r.190                   -1001         -1001               
   187 r.191                 3006.25       6.97977               
   188 r.192                    1001             2               
   189 r.193                   -1001         -1001               
   190 r.194                 2009.26       13.9539               
   191 r.195                    1001             2               
   192 r.196                   -1001         -1001               
   193 r.197                 3014.46       8.21833               
   194 r.198                    1001             2               
   195 r.199                   -1001         -1001               
   196 r.200                 2017.25       22.4156               
   197 r.201                    1000             2               
   198 r.202                   -1000         -1001               
   199 r.203                 3022.45       10.3802               
   200 r.204                       2             2               
   201 r.205                      -2         -1001               
   202 r.206                 17.2477       17.2477               
   203 r.207                    1001             2               
   204 r.208                   -1001         -1001               
   205 r.209                 2999.27       5.41702               
   206 r.210                    1001             2               
   207 r.211                   -1001         -1001               
   208 r.212                 999.714       12.9191               
   209 r.213                -991.995      -991.995               
   210 r.214                -986.795      -986.795               
   211 r.215                -991.995      -991.995               
   212 r.216                -986.795      -986.795               
   213 r.217                 44.0635      -970.401               
   214 r.218                 1044.06      -913.906               
   215 r.219                -961.137      -970.401               
   216 r.220                 38.8634      -913.906               
   217 r.221                 1044.06      -982.196               
   218 r.222                 44.0635      -978.384               
   219 r.223                 38.8634      -982.196               
   220 r.224                -961.137      -978.384               
   221 r.225                       2             2               
   222 r.226                      -2         -1001               
   223 r.227                 970.401       8.21833               
   224 r.228                    1000             2               
   225 r.229                   -1000         -1001               
   226 r.230                 1978.38       22.4156               
   227 r.231                    1001             2               
   228 r.232                   -1001         -1001               
   229 r.233                 1978.38       10.3802               
   230 r.234                    1001             2               
   231 r.235                   -1001         -1001               
   232 r.236                 1978.38       17.2477               
   233 r.237                       2             2               
   234 r.238                      -2         -1001               
   235 r.239                 955.203       5.41702               
   236 r.240                    1000             2               
   237 r.241                   -1000         -1001               
   238 r.242                 960.851       12.9191               
   239 r.243                    1001             2               
   240 r.244                   -1001         -1001               
   241 r.245                    2000      -982.196               
   242 r.246                    1001             2               
   243 r.247                   -1001         -1001               
   244 r.248                    2000      -978.384               
   245 r.249                    1001             2               
   246 r.250                   -1001         -1001               
   247 r.251                 1962.18       6.97977               
   248 r.252                    1001             2               
   249 r.253                   -1001         -1001               
   250 r.254                  1970.4       13.9539               
   251 r.255                    1001             2               
   252 r.256                   -1001         -1001               
   253 r.257                    2000        29.599               
   254 r.258                    1001             2               
   255 r.259                   -1001         -1001               
   256 r.260                    2000       86.0936               

   No. Column name       Activity     Lower bound   Upper bound
------ ------------    ------------- ------------- -------------
     1 tt                    54.1649             0               
     2 s_1_1        *              1             0             1 
     3 t_1_1                 37.8173             0               
     4 s_1_7        *              1             0             1 
     5 s_2_1        *              0             0             1 
     6 t_2_1                  29.599             0               
     7 s_2_7        *              0             0             1 
     8 s_1_2        *              1             0             1 
     9 t_1_2                  29.599             0               
    10 s_1_8        *              0             0             1 
    11 s_2_2        *              0             0             1 
    12 t_2_2                 21.6156             0               
    13 s_2_8        *              1             0             1 
    14 s_1_3        *              0             0             1 
    15 t_1_3                 21.6156             0               
    16 s_2_3        *              1             0             1 
    17 t_2_3                 21.6156             0               
    18 s_1_4        *              1             0             1 
    19 t_1_4                 44.7971             0               
    20 s_2_4        *              0             0             1 
    21 t_2_4                 1039.15             0               
    22 s_1_5        *              0             0             1 
    23 t_1_5                 1044.06             0               
    24 s_2_5        *              1             0             1 
    25 t_2_5                 38.8634             0               
    26 s_1_6        *              1             0             1 
    27 t_1_6                 52.0685             0               
    28 s_2_6        *              0             0             1 
    29 t_2_6                 52.0685             0               
    30 t_1_7                       0             0               
    31 t_2_7                       0             0               
    32 t_1_8                       0             0               
    33 t_2_8                       0             0               
    34 r_1_1_2      *              0             0             1 
    35 u_1_1_2      *              1             0             1 
    36 r_2_1_2      *              1             0             1 
    37 u_2_1_2      *              0             0             1 
    38 r_1_1_3      *              1             0             1 
    39 u_1_1_3      *              0             0             1 
    40 r_2_1_3      *              1             0             1 
    41 u_2_1_3      *              0             0             1 
    42 r_1_1_4      *              0             0             1 
    43 u_1_1_4      *              0             0             1 
    44 r_2_1_4      *              1             0             1 
    45 u_2_1_4      *              0             0             1 
    46 r_1_1_5      *              1             0             1 
    47 u_1_1_5      *              0             0             1 
    48 r_2_1_5      *              1             0             1 
    49 u_2_1_5      *              0             0             1 
    50 r_1_1_8      *              1             0             1 
    51 u_1_1_8      *              0             0             1 
    52 r_2_1_8      *              1             0             1 
    53 u_2_1_8      *              0             0             1 
    54 r_1_2_3      *              1             0             1 
    55 u_1_2_3      *              0             0             1 
    56 r_2_2_3      *              1             0             1 
    57 u_2_2_3      *              0             0             1 
    58 r_1_2_4      *              0             0             1 
    59 u_1_2_4      *              0             0             1 
    60 r_2_2_4      *              1             0             1 
    61 u_2_2_4      *              0             0             1 
    62 r_1_2_5      *              1             0             1 
    63 u_1_2_5      *              0             0             1 
    64 r_2_2_5      *              1             0             1 
    65 u_2_2_5      *              0             0             1 
    66 r_1_2_7      *              0             0             1 
    67 u_1_2_7      *              1             0             1 
    68 r_2_2_7      *              1             0             1 
    69 u_2_2_7      *              0             0             1 
    70 r_1_3_5      *              1             0             1 
    71 u_1_3_5      *              0             0             1 
    72 r_2_3_5      *              0             0             1 
    73 u_2_3_5      *              0             0             1 
    74 r_1_3_7      *              1             0             1 
    75 u_1_3_7      *              0             0             1 
    76 r_2_3_7      *              1             0             1 
    77 u_2_3_7      *              0             0             1 
    78 r_1_4_5      *              1             0             1 
    79 u_1_4_5      *              0             0             1 
    80 r_2_4_5      *              1             0             1 
    81 u_2_4_5      *              0             0             1 
    82 r_1_4_7      *              0             0             1 
    83 u_1_4_7      *              1             0             1 
    84 r_2_4_7      *              1             0             1 
    85 u_2_4_7      *              0             0             1 
    86 r_1_7_8      *              1             0             1 
    87 u_1_7_8      *              0             0             1 
    88 r_2_7_8      *              1             0             1 
    89 u_2_7_8      *              0             0             1 

Integer feasibility conditions:

KKT.PE: max.abs.err = 0.00e+00 on row 0
        max.rel.err = 0.00e+00 on row 0
        High quality

KKT.PB: max.abs.err = 1.14e-13 on row 172
        max.rel.err = 1.15e-16 on row 172
        High quality

End of output
